\ Model Gate_Assignment
\ LP format - for model browsing. Use MPS format to capture full model detail.
\ Signature: 0x6c9cbcaa0bf1e792
Minimize
 
Subject To
 13[F1]: x_ijh[F1,F0,G1] + x_ijh[F1,F4,G1] = 1
 13[F2]: x_ijh[F2,F0,G2] + x_ijh[F2,F4,G2] = 1
 13[F3]: x_ijh[F3,F0,G3] + x_ijh[F3,F4,G3] = 1
 14[F1]: y_igamma[F1,1] + y_igamma[F1,2] + y_igamma[F1,3] + y_igamma[F1,4]
   = 1
 14[F2]: y_igamma[F2,1] + y_igamma[F2,2] + y_igamma[F2,3] + y_igamma[F2,4]
   = 1
 14[F3]: y_igamma[F3,1] + y_igamma[F3,2] + y_igamma[F3,3] + y_igamma[F3,4]
   = 1
 15[('convertible',_'F',_'cargo',_'B',_1),F3,F0,G3]:
   - 1e+07 x_ijh[F3,F0,G3] >= -9.999809e+06
 15[('convertible',_'F',_'cargo',_'B',_1),F4,F3,G3]:
   - 1e+07 x_ijh[F4,F3,G3] >= -9.998629e+06
 15[('convertible',_'F',_'cargo',_'B',_1),F4,F0,G3]:
   - 1e+07 x_ijh[F4,F0,G3] >= -9.998528e+06
 15[('international',_'C',_'passenger',_'A',_1),F2,F0,G2]:
   - 1e+07 x_ijh[F2,F0,G2] >= -9.999829e+06
 15[('international',_'C',_'passenger',_'A',_1),F4,F2,G2]:
   - 1e+07 x_ijh[F4,F2,G2] >= -9.998609e+06
 15[('international',_'C',_'passenger',_'A',_1),F4,F0,G2]:
   - 1e+07 x_ijh[F4,F0,G2] >= -9.998528e+06
 15[('domestic',_'C',_'passenger',_'A',_1),F1,F0,G1]:
   - 1e+07 x_ijh[F1,F0,G1] >= -9.999849e+06
 15[('domestic',_'C',_'passenger',_'A',_1),F4,F1,G1]:
   - 1e+07 x_ijh[F4,F1,G1] >= -9.998589e+06
 15[('domestic',_'C',_'passenger',_'A',_1),F4,F0,G1]:
   - 1e+07 x_ijh[F4,F0,G1] >= -9.998528e+06
 16[('convertible',_'F',_'cargo',_'B',_1),G3,F3]: - x_ijh[F3,F0,G3]
   - x_ijh[F3,F4,G3] + x_ijh[F0,F3,G3] + x_ijh[F4,F3,G3] = 0
 16[('international',_'C',_'passenger',_'A',_1),G2,F2]: - x_ijh[F2,F0,G2]
   - x_ijh[F2,F4,G2] + x_ijh[F0,F2,G2] + x_ijh[F4,F2,G2] = 0
 16[('domestic',_'C',_'passenger',_'A',_1),G1,F1]: - x_ijh[F1,F0,G1]
   - x_ijh[F1,F4,G1] + x_ijh[F0,F1,G1] + x_ijh[F4,F1,G1] = 0
 17a[('convertible',_'F',_'cargo',_'B',_1),G3]: - x_ijh[F3,F4,G3]
   + x_ijh[F0,F3,G3] = 0
 17a[('international',_'C',_'passenger',_'A',_1),G2]: - x_ijh[F2,F4,G2]
   + x_ijh[F0,F2,G2] = 0
 17a[('domestic',_'C',_'passenger',_'A',_1),G1]: - x_ijh[F1,F4,G1]
   + x_ijh[F0,F1,G1] = 0
 17b[('convertible',_'F',_'cargo',_'B',_1),G3]: x_ijh[F0,F3,G3] <= 1
 17b[('international',_'C',_'passenger',_'A',_1),G2]: x_ijh[F0,F2,G2] <= 1
 17b[('domestic',_'C',_'passenger',_'A',_1),G1]: x_ijh[F0,F1,G1] <= 1
 18[A,0]: <= 5
 18[A,1410]: <= 5
 18[A,900]: <= 5
 18[A,390]: <= 5
 18[A,1290]: <= 5
 18[A,780]: <= 5
 18[A,270]: <= 5
 18[A,1170]: <= 5
 18[A,660]: <= 5
 18[A,150]: <= 5
 18[A,1050]: <= 5
 18[A,540]: <= 5
 18[A,30]: <= 5
 18[A,930]: <= 5
 18[A,420]: <= 5
 18[A,1320]: <= 5
 18[A,810]: <= 5
 18[A,300]: <= 5
 18[A,1200]: <= 5
 18[A,690]: <= 5
 18[A,180]: <= 5
 18[A,1080]: <= 5
 18[A,570]: <= 5
 18[A,60]: x_ijh[F2,F0,G2] + x_ijh[F2,F4,G2] + x_ijh[F1,F0,G1]
   + x_ijh[F1,F4,G1] <= 5
 18[A,960]: <= 5
 18[A,450]: <= 5
 18[A,1350]: <= 5
 18[A,840]: <= 5
 18[A,330]: <= 5
 18[A,1230]: <= 5
 18[A,720]: <= 5
 18[A,210]: <= 5
 18[A,1110]: <= 5
 18[A,600]: <= 5
 18[A,90]: x_ijh[F2,F0,G2] + x_ijh[F2,F4,G2] + x_ijh[F1,F0,G1]
   + x_ijh[F1,F4,G1] <= 5
 18[A,990]: <= 5
 18[A,480]: <= 5
 18[A,1380]: <= 5
 18[A,870]: <= 5
 18[A,360]: <= 5
 18[A,1260]: <= 5
 18[A,750]: <= 5
 18[A,240]: <= 5
 18[A,1140]: <= 5
 18[A,630]: <= 5
 18[A,120]: x_ijh[F2,F0,G2] + x_ijh[F2,F4,G2] <= 5
 18[A,1020]: <= 5
 18[A,510]: <= 5
 18[B,0]: <= 5
 18[B,1410]: <= 5
 18[B,900]: <= 5
 18[B,390]: <= 5
 18[B,1290]: <= 5
 18[B,780]: <= 5
 18[B,270]: <= 5
 18[B,1170]: <= 5
 18[B,660]: <= 5
 18[B,150]: x_ijh[F3,F0,G3] + x_ijh[F3,F4,G3] <= 5
 18[B,1050]: <= 5
 18[B,540]: <= 5
 18[B,30]: <= 5
 18[B,930]: <= 5
 18[B,420]: <= 5
 18[B,1320]: <= 5
 18[B,810]: <= 5
 18[B,300]: <= 5
 18[B,1200]: <= 5
 18[B,690]: <= 5
 18[B,180]: <= 5
 18[B,1080]: <= 5
 18[B,570]: <= 5
 18[B,60]: <= 5
 18[B,960]: <= 5
 18[B,450]: <= 5
 18[B,1350]: <= 5
 18[B,840]: <= 5
 18[B,330]: <= 5
 18[B,1230]: <= 5
 18[B,720]: <= 5
 18[B,210]: <= 5
 18[B,1110]: <= 5
 18[B,600]: <= 5
 18[B,90]: x_ijh[F3,F0,G3] + x_ijh[F3,F4,G3] <= 5
 18[B,990]: <= 5
 18[B,480]: <= 5
 18[B,1380]: <= 5
 18[B,870]: <= 5
 18[B,360]: <= 5
 18[B,1260]: <= 5
 18[B,750]: <= 5
 18[B,240]: <= 5
 18[B,1140]: <= 5
 18[B,630]: <= 5
 18[B,120]: x_ijh[F3,F0,G3] + x_ijh[F3,F4,G3] <= 5
 18[B,1020]: <= 5
 18[B,510]: <= 5
 20[0,1]: <= 4
 20[0,2]: <= 4
 20[0,3]: <= 4
 20[0,4]: <= 4
 20[1035,1]: <= 4
 20[1035,2]: <= 4
 20[1035,3]: <= 4
 20[1035,4]: <= 4
 20[525,1]: <= 4
 20[525,2]: <= 4
 20[525,3]: <= 4
 20[525,4]: <= 4
 20[15,1]: <= 4
 20[15,2]: <= 4
 20[15,3]: <= 4
 20[15,4]: <= 4
 20[1050,1]: <= 4
 20[1050,2]: <= 4
 20[1050,3]: <= 4
 20[1050,4]: <= 4
 20[540,1]: <= 4
 20[540,2]: <= 4
 20[540,3]: <= 4
 20[540,4]: <= 4
 20[30,1]: <= 4
 20[30,2]: <= 4
 20[30,3]: <= 4
 20[30,4]: <= 4
 20[1065,1]: <= 4
 20[1065,2]: <= 4
 20[1065,3]: <= 4
 20[1065,4]: <= 4
 20[555,1]: <= 4
 20[555,2]: <= 4
 20[555,3]: <= 4
 20[555,4]: <= 4
 20[45,1]: <= 4
 20[45,2]: <= 4
 20[45,3]: <= 4
 20[45,4]: <= 4
 20[1080,1]: <= 4
 20[1080,2]: <= 4
 20[1080,3]: <= 4
 20[1080,4]: <= 4
 20[570,1]: <= 4
 20[570,2]: <= 4
 20[570,3]: <= 4
 20[570,4]: <= 4
 20[60,1]: y_igamma[F1,1] <= 3
 20[60,2]: y_igamma[F1,2] <= 4
 20[60,3]: y_igamma[F1,3] <= 4
 20[60,4]: y_igamma[F1,4] <= 4
 20[1095,1]: <= 4
 20[1095,2]: <= 4
 20[1095,3]: <= 4
 20[1095,4]: <= 4
 20[585,1]: <= 4
 20[585,2]: <= 4
 20[585,3]: <= 4
 20[585,4]: <= 4
 20[75,1]: y_igamma[F2,1] <= 3
 20[75,2]: y_igamma[F2,2] <= 4
 20[75,3]: y_igamma[F2,3] <= 4
 20[75,4]: y_igamma[F2,4] <= 4
 20[1110,1]: <= 4
 20[1110,2]: <= 4
 20[1110,3]: <= 4
 20[1110,4]: <= 4
 20[600,1]: <= 4
 20[600,2]: <= 4
 20[600,3]: <= 4
 20[600,4]: <= 4
 20[90,1]: y_igamma[F3,1] <= 3
 20[90,2]: y_igamma[F3,2] <= 4
 20[90,3]: y_igamma[F3,3] <= 4
 20[90,4]: y_igamma[F3,4] <= 4
 20[1125,1]: <= 4
 20[1125,2]: <= 4
 20[1125,3]: <= 4
 20[1125,4]: <= 4
 20[615,1]: <= 4
 20[615,2]: <= 4
 20[615,3]: <= 4
 20[615,4]: <= 4
 20[105,1]: <= 4
 20[105,2]: <= 4
 20[105,3]: <= 4
 20[105,4]: <= 4
 20[1140,1]: <= 4
 20[1140,2]: <= 4
 20[1140,3]: <= 4
 20[1140,4]: <= 4
 20[630,1]: <= 4
 20[630,2]: <= 4
 20[630,3]: <= 4
 20[630,4]: <= 4
 20[120,1]: y_igamma[F1,1] <= 4
 20[120,2]: y_igamma[F1,2] <= 4
 20[120,3]: y_igamma[F1,3] <= 4
 20[120,4]: y_igamma[F1,4] <= 4
 20[1155,1]: <= 4
 20[1155,2]: <= 4
 20[1155,3]: <= 4
 20[1155,4]: <= 4
 20[645,1]: <= 4
 20[645,2]: <= 4
 20[645,3]: <= 4
 20[645,4]: <= 4
 20[135,1]: y_igamma[F2,1] <= 4
 20[135,2]: y_igamma[F2,2] <= 4
 20[135,3]: y_igamma[F2,3] <= 4
 20[135,4]: y_igamma[F2,4] <= 4
 20[1170,1]: <= 4
 20[1170,2]: <= 4
 20[1170,3]: <= 4
 20[1170,4]: <= 4
 20[660,1]: <= 4
 20[660,2]: <= 4
 20[660,3]: <= 4
 20[660,4]: <= 4
 20[150,1]: y_igamma[F3,1] <= 4
 20[150,2]: y_igamma[F3,2] <= 4
 20[150,3]: y_igamma[F3,3] <= 4
 20[150,4]: y_igamma[F3,4] <= 4
 20[1185,1]: <= 4
 20[1185,2]: <= 4
 20[1185,3]: <= 4
 20[1185,4]: <= 4
 20[675,1]: <= 4
 20[675,2]: <= 4
 20[675,3]: <= 4
 20[675,4]: <= 4
 20[165,1]: <= 4
 20[165,2]: <= 4
 20[165,3]: <= 4
 20[165,4]: <= 4
 20[1200,1]: <= 4
 20[1200,2]: <= 4
 20[1200,3]: <= 4
 20[1200,4]: <= 4
 20[690,1]: <= 4
 20[690,2]: <= 4
 20[690,3]: <= 4
 20[690,4]: <= 4
 20[180,1]: <= 4
 20[180,2]: <= 4
 20[180,3]: <= 4
 20[180,4]: <= 4
 20[1215,1]: <= 4
 20[1215,2]: <= 4
 20[1215,3]: <= 4
 20[1215,4]: <= 4
 20[705,1]: <= 4
 20[705,2]: <= 4
 20[705,3]: <= 4
 20[705,4]: <= 4
 20[195,1]: <= 4
 20[195,2]: <= 4
 20[195,3]: <= 4
 20[195,4]: <= 4
 20[1230,1]: <= 4
 20[1230,2]: <= 4
 20[1230,3]: <= 4
 20[1230,4]: <= 4
 20[720,1]: <= 4
 20[720,2]: <= 4
 20[720,3]: <= 4
 20[720,4]: <= 4
 20[210,1]: <= 4
 20[210,2]: <= 4
 20[210,3]: <= 4
 20[210,4]: <= 4
 20[1245,1]: <= 4
 20[1245,2]: <= 4
 20[1245,3]: <= 4
 20[1245,4]: <= 4
 20[735,1]: <= 4
 20[735,2]: <= 4
 20[735,3]: <= 4
 20[735,4]: <= 4
 20[225,1]: <= 4
 20[225,2]: <= 4
 20[225,3]: <= 4
 20[225,4]: <= 4
 20[1260,1]: <= 4
 20[1260,2]: <= 4
 20[1260,3]: <= 4
 20[1260,4]: <= 4
 20[750,1]: <= 4
 20[750,2]: <= 4
 20[750,3]: <= 4
 20[750,4]: <= 4
 20[240,1]: <= 4
 20[240,2]: <= 4
 20[240,3]: <= 4
 20[240,4]: <= 4
 20[1275,1]: <= 4
 20[1275,2]: <= 4
 20[1275,3]: <= 4
 20[1275,4]: <= 4
 20[765,1]: <= 4
 20[765,2]: <= 4
 20[765,3]: <= 4
 20[765,4]: <= 4
 20[255,1]: <= 4
 20[255,2]: <= 4
 20[255,3]: <= 4
 20[255,4]: <= 4
 20[1290,1]: <= 4
 20[1290,2]: <= 4
 20[1290,3]: <= 4
 20[1290,4]: <= 4
 20[780,1]: <= 4
 20[780,2]: <= 4
 20[780,3]: <= 4
 20[780,4]: <= 4
 20[270,1]: <= 4
 20[270,2]: <= 4
 20[270,3]: <= 4
 20[270,4]: <= 4
 20[1305,1]: <= 4
 20[1305,2]: <= 4
 20[1305,3]: <= 4
 20[1305,4]: <= 4
 20[795,1]: <= 4
 20[795,2]: <= 4
 20[795,3]: <= 4
 20[795,4]: <= 4
 20[285,1]: <= 4
 20[285,2]: <= 4
 20[285,3]: <= 4
 20[285,4]: <= 4
 20[1320,1]: <= 4
 20[1320,2]: <= 4
 20[1320,3]: <= 4
 20[1320,4]: <= 4
 20[810,1]: <= 4
 20[810,2]: <= 4
 20[810,3]: <= 4
 20[810,4]: <= 4
 20[300,1]: <= 4
 20[300,2]: <= 4
 20[300,3]: <= 4
 20[300,4]: <= 4
 20[1335,1]: <= 4
 20[1335,2]: <= 4
 20[1335,3]: <= 4
 20[1335,4]: <= 4
 20[825,1]: <= 4
 20[825,2]: <= 4
 20[825,3]: <= 4
 20[825,4]: <= 4
 20[315,1]: <= 4
 20[315,2]: <= 4
 20[315,3]: <= 4
 20[315,4]: <= 4
 20[1350,1]: <= 4
 20[1350,2]: <= 4
 20[1350,3]: <= 4
 20[1350,4]: <= 4
 20[840,1]: <= 4
 20[840,2]: <= 4
 20[840,3]: <= 4
 20[840,4]: <= 4
 20[330,1]: <= 4
 20[330,2]: <= 4
 20[330,3]: <= 4
 20[330,4]: <= 4
 20[1365,1]: <= 4
 20[1365,2]: <= 4
 20[1365,3]: <= 4
 20[1365,4]: <= 4
 20[855,1]: <= 4
 20[855,2]: <= 4
 20[855,3]: <= 4
 20[855,4]: <= 4
 20[345,1]: <= 4
 20[345,2]: <= 4
 20[345,3]: <= 4
 20[345,4]: <= 4
 20[1380,1]: <= 4
 20[1380,2]: <= 4
 20[1380,3]: <= 4
 20[1380,4]: <= 4
 20[870,1]: <= 4
 20[870,2]: <= 4
 20[870,3]: <= 4
 20[870,4]: <= 4
 20[360,1]: <= 4
 20[360,2]: <= 4
 20[360,3]: <= 4
 20[360,4]: <= 4
 20[1395,1]: <= 4
 20[1395,2]: <= 4
 20[1395,3]: <= 4
 20[1395,4]: <= 4
 20[885,1]: <= 4
 20[885,2]: <= 4
 20[885,3]: <= 4
 20[885,4]: <= 4
 20[375,1]: <= 4
 20[375,2]: <= 4
 20[375,3]: <= 4
 20[375,4]: <= 4
 20[1410,1]: <= 4
 20[1410,2]: <= 4
 20[1410,3]: <= 4
 20[1410,4]: <= 4
 20[900,1]: <= 4
 20[900,2]: <= 4
 20[900,3]: <= 4
 20[900,4]: <= 4
 20[390,1]: <= 4
 20[390,2]: <= 4
 20[390,3]: <= 4
 20[390,4]: <= 4
 20[1425,1]: <= 4
 20[1425,2]: <= 4
 20[1425,3]: <= 4
 20[1425,4]: <= 4
 20[915,1]: <= 4
 20[915,2]: <= 4
 20[915,3]: <= 4
 20[915,4]: <= 4
 20[405,1]: <= 4
 20[405,2]: <= 4
 20[405,3]: <= 4
 20[405,4]: <= 4
 20[930,1]: <= 4
 20[930,2]: <= 4
 20[930,3]: <= 4
 20[930,4]: <= 4
 20[420,1]: <= 4
 20[420,2]: <= 4
 20[420,3]: <= 4
 20[420,4]: <= 4
 20[945,1]: <= 4
 20[945,2]: <= 4
 20[945,3]: <= 4
 20[945,4]: <= 4
 20[435,1]: <= 4
 20[435,2]: <= 4
 20[435,3]: <= 4
 20[435,4]: <= 4
 20[960,1]: <= 4
 20[960,2]: <= 4
 20[960,3]: <= 4
 20[960,4]: <= 4
 20[450,1]: <= 4
 20[450,2]: <= 4
 20[450,3]: <= 4
 20[450,4]: <= 4
 20[975,1]: <= 4
 20[975,2]: <= 4
 20[975,3]: <= 4
 20[975,4]: <= 4
 20[465,1]: <= 4
 20[465,2]: <= 4
 20[465,3]: <= 4
 20[465,4]: <= 4
 20[990,1]: <= 4
 20[990,2]: <= 4
 20[990,3]: <= 4
 20[990,4]: <= 4
 20[480,1]: <= 4
 20[480,2]: <= 4
 20[480,3]: <= 4
 20[480,4]: <= 4
 20[1005,1]: <= 4
 20[1005,2]: <= 4
 20[1005,3]: <= 4
 20[1005,4]: <= 4
 20[495,1]: <= 4
 20[495,2]: <= 4
 20[495,3]: <= 4
 20[495,4]: <= 4
 20[1020,1]: <= 4
 20[1020,2]: <= 4
 20[1020,3]: <= 4
 20[1020,4]: <= 4
 20[510,1]: <= 4
 20[510,2]: <= 4
 20[510,3]: <= 4
 20[510,4]: <= 4
Bounds
Binaries
 x_ijh[F3,F0,G3] x_ijh[F3,F4,G3] x_ijh[F0,F3,G3] x_ijh[F4,F3,G3]
 x_ijh[F4,F0,G3] x_ijh[F2,F0,G2] x_ijh[F2,F4,G2] x_ijh[F0,F2,G2]
 x_ijh[F4,F2,G2] x_ijh[F4,F0,G2] x_ijh[F1,F0,G1] x_ijh[F1,F4,G1]
 x_ijh[F0,F1,G1] x_ijh[F4,F1,G1] x_ijh[F4,F0,G1] y_igamma[F1,1]
 y_igamma[F1,2] y_igamma[F1,3] y_igamma[F1,4] y_igamma[F2,1] y_igamma[F2,2]
 y_igamma[F2,3] y_igamma[F2,4] y_igamma[F3,1] y_igamma[F3,2] y_igamma[F3,3]
 y_igamma[F3,4]
End
